Route #1: 10 41 61 24 16 46 63 4 23
Route #2: 11 30 53 62
Route #3: 9 19 34 37 51 45 48
Route #4: 3 50 36 44 35 26 43 22
Route #5: 60 47 2 58 5 8
Route #6: 25 38 28 27 17 1 15
Route #7: 29 57 14 12 18
Route #8: 52 56 13 32 42 33 6
Route #9: 20 54 31 59 39 21 7 40 49 55
cost 1754.171875